8 16
0 1 3 5
0 999 2 8
1 0 2 4 5 6 7 
1 999 35 11 10 18 14
2 1 5
2 35 16
3 0 5 6
3 2 7 9
4 1 6 7
4 11 12 20
5 0 1 2 3 4 6 7
5 8 10 16 7 17 17 89
6 1 3 4 5
6 18 9 12 17
7 0 1 4 5
7 49 14 20 89

